\ Model assing_problem_copy
\ LP format - for model browsing. Use MPS format to capture full model detail.
Minimize
  + 78327 Constant
Subject To
 R42: Y_000 + Y_001 + Y_002 + Y_003 + Y_100 + Y_101 + Y_102 + Y_103 + Y_200
   + Y_201 + Y_202 + Y_203 + Y_300 + Y_301 + Y_302 + Y_303 + Y_400 + Y_401
   + Y_402 + Y_403 + Y_500 + Y_501 + Y_502 + Y_503 + Y_600 + Y_601 + Y_602
   + Y_603 >= 1
 R43: Y_010 + Y_011 + Y_012 + Y_013 + Y_110 + Y_111 + Y_112 + Y_113 + Y_210
   + Y_211 + Y_212 + Y_213 + Y_310 + Y_311 + Y_312 + Y_313 + Y_410 + Y_411
   + Y_412 + Y_413 + Y_510 + Y_511 + Y_512 + Y_513 + Y_610 + Y_611 + Y_612
   + Y_613 >= 1
 R44: Y_020 + Y_021 + Y_022 + Y_023 + Y_120 + Y_121 + Y_122 + Y_123 + Y_220
   + Y_221 + Y_222 + Y_223 + Y_320 + Y_321 + Y_322 + Y_323 + Y_420 + Y_421
   + Y_422 + Y_423 + Y_520 + Y_521 + Y_522 + Y_523 + Y_620 + Y_621 + Y_622
   + Y_623 >= 1
 R50: Z_00 + Z_10 + Z_20 + Z_30 = 1
 R51: Z_01 + Z_11 + Z_21 + Z_31 = 1
 R52: Z_02 + Z_12 + Z_22 + Z_32 = 1
 R53: Z_03 + Z_13 + Z_23 + Z_33 = 1
 R54: - Z_00 - Z_01 - Z_02 - Z_03 + 2 Y_000 + 2 Y_001 + 2 Y_002 + 2 Y_003
   + 2 Y_100 + 2 Y_101 + 2 Y_102 + 2 Y_103 + 2 Y_200 + 2 Y_201 + 2 Y_202
   + 2 Y_203 + 2 Y_300 + 2 Y_301 + 2 Y_302 + 2 Y_303 + 2 Y_400 + 2 Y_401
   + 2 Y_402 + 2 Y_403 + 2 Y_500 + 2 Y_501 + 2 Y_502 + 2 Y_503 + 2 Y_600
   + 2 Y_601 + 2 Y_602 + 2 Y_603 <= 0
 R55: - Z_10 - Z_11 - Z_12 - Z_13 + 2 Y_010 + 2 Y_011 + 2 Y_012 + 2 Y_013
   + 2 Y_110 + 2 Y_111 + 2 Y_112 + 2 Y_113 + 2 Y_210 + 2 Y_211 + 2 Y_212
   + 2 Y_213 + 2 Y_310 + 2 Y_311 + 2 Y_312 + 2 Y_313 + 2 Y_410 + 2 Y_411
   + 2 Y_412 + 2 Y_413 + 2 Y_510 + 2 Y_511 + 2 Y_512 + 2 Y_513 + 2 Y_610
   + 2 Y_611 + 2 Y_612 + 2 Y_613 <= 0
 R56: - Z_20 - Z_21 - Z_22 - Z_23 + 2 Y_020 + 2 Y_021 + 2 Y_022 + 2 Y_023
   + 2 Y_120 + 2 Y_121 + 2 Y_122 + 2 Y_123 + 2 Y_220 + 2 Y_221 + 2 Y_222
   + 2 Y_223 + 2 Y_320 + 2 Y_321 + 2 Y_322 + 2 Y_323 + 2 Y_420 + 2 Y_421
   + 2 Y_422 + 2 Y_423 + 2 Y_520 + 2 Y_521 + 2 Y_522 + 2 Y_523 + 2 Y_620
   + 2 Y_621 + 2 Y_622 + 2 Y_623 <= 0
Bounds
 Constant = 1
Binaries
 Z_00 Z_01 Z_02 Z_03 Z_10 Z_11 Z_12 Z_13 Z_20 Z_21 Z_22 Z_23 Z_30 Z_31 Z_32
 Z_33 Y_000 Y_001 Y_002 Y_003 Y_010 Y_011 Y_012 Y_013 Y_020 Y_021 Y_022
 Y_023 Y_100 Y_101 Y_102 Y_103 Y_110 Y_111 Y_112 Y_113 Y_120 Y_121 Y_122
 Y_123 Y_200 Y_201 Y_202 Y_203 Y_210 Y_211 Y_212 Y_213 Y_220 Y_221 Y_222
 Y_223 Y_300 Y_301 Y_302 Y_303 Y_310 Y_311 Y_312 Y_313 Y_320 Y_321 Y_322
 Y_323 Y_400 Y_401 Y_402 Y_403 Y_410 Y_411 Y_412 Y_413 Y_420 Y_421 Y_422
 Y_423 Y_500 Y_501 Y_502 Y_503 Y_510 Y_511 Y_512 Y_513 Y_520 Y_521 Y_522
 Y_523 Y_600 Y_601 Y_602 Y_603 Y_610 Y_611 Y_612 Y_613 Y_620 Y_621 Y_622
 Y_623
End
